{
  "Solver": "clingo version 5.4.1",
  "Input": [
    "knowledge-base-instances.lp","knowledge_base_problem_class_2.lp","functions.lp"
  ],
  "Call": [
    {

    }
  ],
  "Result": "UNKNOWN",
  "Models": {
    "Number": 0,
    "More": "yes"
  },
  "Calls": 1,
  "Time": {
    "Total": 0.216,
    "Solve": 0.000,
    "Model": 0.000,
    "Unsat": 0.000,
    "CPU": 0.111
  }
}
